(set-logic QF_LRA)
(declare-fun X0 () Real )
(declare-fun Y0 () Real )
(declare-fun X1 () Real )
(declare-fun Y1 () Real )
(declare-fun X2 () Real )
(declare-fun Y2 () Real )
(declare-fun X3 () Real )
(declare-fun Y3 () Real )
(declare-fun X4 () Real )
(declare-fun Y4 () Real )
(declare-fun X5 () Real )
(declare-fun Y5 () Real )
(declare-fun X6 () Real )
(declare-fun Y6 () Real )
(declare-fun X7 () Real )
(declare-fun Y7 () Real )
(declare-fun X8 () Real )
(declare-fun Y8 () Real )
(declare-fun X9 () Real )
(declare-fun Y9 () Real )
(declare-fun X10 () Real )
(declare-fun Y10 () Real )
(declare-fun X11 () Real )
(declare-fun Y11 () Real )
(declare-fun Z () Real )
(declare-fun k () Real )
(assert (let
(( $goal (>= Z k) ))
(let
((
$phi ( and 
( or ( <= ( + X0 63 ) X1 )  ( <= ( + X1 75 ) X0 )  ( <= ( + Y0 24 ) Y1 )  ( <= ( + Y1 57 ) Y0 )  )
( or ( <= ( + X0 63 ) X2 )  ( <= ( + X2 30 ) X0 )  ( <= ( + Y0 24 ) Y2 )  ( <= ( + Y2 2 ) Y0 )  )
( or ( <= ( + X0 63 ) X3 )  ( <= ( + X3 57 ) X0 )  ( <= ( + Y0 24 ) Y3 )  ( <= ( + Y3 81 ) Y0 )  )
( or ( <= ( + X0 63 ) X4 )  ( <= ( + X4 21 ) X0 )  ( <= ( + Y0 24 ) Y4 )  ( <= ( + Y4 37 ) Y0 )  )
( or ( <= ( + X0 63 ) X5 )  ( <= ( + X5 39 ) X0 )  ( <= ( + Y0 24 ) Y5 )  ( <= ( + Y5 34 ) Y0 )  )
( or ( <= ( + X0 63 ) X6 )  ( <= ( + X6 91 ) X0 )  ( <= ( + Y0 24 ) Y6 )  ( <= ( + Y6 60 ) Y0 )  )
( or ( <= ( + X0 63 ) X7 )  ( <= ( + X7 4 ) X0 )  ( <= ( + Y0 24 ) Y7 )  ( <= ( + Y7 19 ) Y0 )  )
( or ( <= ( + X0 63 ) X8 )  ( <= ( + X8 82 ) X0 )  ( <= ( + Y0 24 ) Y8 )  ( <= ( + Y8 71 ) Y0 )  )
( or ( <= ( + X0 63 ) X9 )  ( <= ( + X9 8 ) X0 )  ( <= ( + Y0 24 ) Y9 )  ( <= ( + Y9 78 ) Y0 )  )
( or ( <= ( + X0 63 ) X10 )  ( <= ( + X10 62 ) X0 )  ( <= ( + Y0 24 ) Y10 )  ( <= ( + Y10 74 ) Y0 )  )
( or ( <= ( + X0 63 ) X11 )  ( <= ( + X11 29 ) X0 )  ( <= ( + Y0 24 ) Y11 )  ( <= ( + Y11 52 ) Y0 )  )
( or ( <= ( + X1 75 ) X2 )  ( <= ( + X2 30 ) X1 )  ( <= ( + Y1 57 ) Y2 )  ( <= ( + Y2 2 ) Y1 )  )
( or ( <= ( + X1 75 ) X3 )  ( <= ( + X3 57 ) X1 )  ( <= ( + Y1 57 ) Y3 )  ( <= ( + Y3 81 ) Y1 )  )
( or ( <= ( + X1 75 ) X4 )  ( <= ( + X4 21 ) X1 )  ( <= ( + Y1 57 ) Y4 )  ( <= ( + Y4 37 ) Y1 )  )
( or ( <= ( + X1 75 ) X5 )  ( <= ( + X5 39 ) X1 )  ( <= ( + Y1 57 ) Y5 )  ( <= ( + Y5 34 ) Y1 )  )
( or ( <= ( + X1 75 ) X6 )  ( <= ( + X6 91 ) X1 )  ( <= ( + Y1 57 ) Y6 )  ( <= ( + Y6 60 ) Y1 )  )
( or ( <= ( + X1 75 ) X7 )  ( <= ( + X7 4 ) X1 )  ( <= ( + Y1 57 ) Y7 )  ( <= ( + Y7 19 ) Y1 )  )
( or ( <= ( + X1 75 ) X8 )  ( <= ( + X8 82 ) X1 )  ( <= ( + Y1 57 ) Y8 )  ( <= ( + Y8 71 ) Y1 )  )
( or ( <= ( + X1 75 ) X9 )  ( <= ( + X9 8 ) X1 )  ( <= ( + Y1 57 ) Y9 )  ( <= ( + Y9 78 ) Y1 )  )
( or ( <= ( + X1 75 ) X10 )  ( <= ( + X10 62 ) X1 )  ( <= ( + Y1 57 ) Y10 )  ( <= ( + Y10 74 ) Y1 )  )
( or ( <= ( + X1 75 ) X11 )  ( <= ( + X11 29 ) X1 )  ( <= ( + Y1 57 ) Y11 )  ( <= ( + Y11 52 ) Y1 )  )
( or ( <= ( + X2 30 ) X3 )  ( <= ( + X3 57 ) X2 )  ( <= ( + Y2 2 ) Y3 )  ( <= ( + Y3 81 ) Y2 )  )
( or ( <= ( + X2 30 ) X4 )  ( <= ( + X4 21 ) X2 )  ( <= ( + Y2 2 ) Y4 )  ( <= ( + Y4 37 ) Y2 )  )
( or ( <= ( + X2 30 ) X5 )  ( <= ( + X5 39 ) X2 )  ( <= ( + Y2 2 ) Y5 )  ( <= ( + Y5 34 ) Y2 )  )
( or ( <= ( + X2 30 ) X6 )  ( <= ( + X6 91 ) X2 )  ( <= ( + Y2 2 ) Y6 )  ( <= ( + Y6 60 ) Y2 )  )
( or ( <= ( + X2 30 ) X7 )  ( <= ( + X7 4 ) X2 )  ( <= ( + Y2 2 ) Y7 )  ( <= ( + Y7 19 ) Y2 )  )
( or ( <= ( + X2 30 ) X8 )  ( <= ( + X8 82 ) X2 )  ( <= ( + Y2 2 ) Y8 )  ( <= ( + Y8 71 ) Y2 )  )
( or ( <= ( + X2 30 ) X9 )  ( <= ( + X9 8 ) X2 )  ( <= ( + Y2 2 ) Y9 )  ( <= ( + Y9 78 ) Y2 )  )
( or ( <= ( + X2 30 ) X10 )  ( <= ( + X10 62 ) X2 )  ( <= ( + Y2 2 ) Y10 )  ( <= ( + Y10 74 ) Y2 )  )
( or ( <= ( + X2 30 ) X11 )  ( <= ( + X11 29 ) X2 )  ( <= ( + Y2 2 ) Y11 )  ( <= ( + Y11 52 ) Y2 )  )
( or ( <= ( + X3 57 ) X4 )  ( <= ( + X4 21 ) X3 )  ( <= ( + Y3 81 ) Y4 )  ( <= ( + Y4 37 ) Y3 )  )
( or ( <= ( + X3 57 ) X5 )  ( <= ( + X5 39 ) X3 )  ( <= ( + Y3 81 ) Y5 )  ( <= ( + Y5 34 ) Y3 )  )
( or ( <= ( + X3 57 ) X6 )  ( <= ( + X6 91 ) X3 )  ( <= ( + Y3 81 ) Y6 )  ( <= ( + Y6 60 ) Y3 )  )
( or ( <= ( + X3 57 ) X7 )  ( <= ( + X7 4 ) X3 )  ( <= ( + Y3 81 ) Y7 )  ( <= ( + Y7 19 ) Y3 )  )
( or ( <= ( + X3 57 ) X8 )  ( <= ( + X8 82 ) X3 )  ( <= ( + Y3 81 ) Y8 )  ( <= ( + Y8 71 ) Y3 )  )
( or ( <= ( + X3 57 ) X9 )  ( <= ( + X9 8 ) X3 )  ( <= ( + Y3 81 ) Y9 )  ( <= ( + Y9 78 ) Y3 )  )
( or ( <= ( + X3 57 ) X10 )  ( <= ( + X10 62 ) X3 )  ( <= ( + Y3 81 ) Y10 )  ( <= ( + Y10 74 ) Y3 )  )
( or ( <= ( + X3 57 ) X11 )  ( <= ( + X11 29 ) X3 )  ( <= ( + Y3 81 ) Y11 )  ( <= ( + Y11 52 ) Y3 )  )
( or ( <= ( + X4 21 ) X5 )  ( <= ( + X5 39 ) X4 )  ( <= ( + Y4 37 ) Y5 )  ( <= ( + Y5 34 ) Y4 )  )
( or ( <= ( + X4 21 ) X6 )  ( <= ( + X6 91 ) X4 )  ( <= ( + Y4 37 ) Y6 )  ( <= ( + Y6 60 ) Y4 )  )
( or ( <= ( + X4 21 ) X7 )  ( <= ( + X7 4 ) X4 )  ( <= ( + Y4 37 ) Y7 )  ( <= ( + Y7 19 ) Y4 )  )
( or ( <= ( + X4 21 ) X8 )  ( <= ( + X8 82 ) X4 )  ( <= ( + Y4 37 ) Y8 )  ( <= ( + Y8 71 ) Y4 )  )
( or ( <= ( + X4 21 ) X9 )  ( <= ( + X9 8 ) X4 )  ( <= ( + Y4 37 ) Y9 )  ( <= ( + Y9 78 ) Y4 )  )
( or ( <= ( + X4 21 ) X10 )  ( <= ( + X10 62 ) X4 )  ( <= ( + Y4 37 ) Y10 )  ( <= ( + Y10 74 ) Y4 )  )
( or ( <= ( + X4 21 ) X11 )  ( <= ( + X11 29 ) X4 )  ( <= ( + Y4 37 ) Y11 )  ( <= ( + Y11 52 ) Y4 )  )
( or ( <= ( + X5 39 ) X6 )  ( <= ( + X6 91 ) X5 )  ( <= ( + Y5 34 ) Y6 )  ( <= ( + Y6 60 ) Y5 )  )
( or ( <= ( + X5 39 ) X7 )  ( <= ( + X7 4 ) X5 )  ( <= ( + Y5 34 ) Y7 )  ( <= ( + Y7 19 ) Y5 )  )
( or ( <= ( + X5 39 ) X8 )  ( <= ( + X8 82 ) X5 )  ( <= ( + Y5 34 ) Y8 )  ( <= ( + Y8 71 ) Y5 )  )
( or ( <= ( + X5 39 ) X9 )  ( <= ( + X9 8 ) X5 )  ( <= ( + Y5 34 ) Y9 )  ( <= ( + Y9 78 ) Y5 )  )
( or ( <= ( + X5 39 ) X10 )  ( <= ( + X10 62 ) X5 )  ( <= ( + Y5 34 ) Y10 )  ( <= ( + Y10 74 ) Y5 )  )
( or ( <= ( + X5 39 ) X11 )  ( <= ( + X11 29 ) X5 )  ( <= ( + Y5 34 ) Y11 )  ( <= ( + Y11 52 ) Y5 )  )
( or ( <= ( + X6 91 ) X7 )  ( <= ( + X7 4 ) X6 )  ( <= ( + Y6 60 ) Y7 )  ( <= ( + Y7 19 ) Y6 )  )
( or ( <= ( + X6 91 ) X8 )  ( <= ( + X8 82 ) X6 )  ( <= ( + Y6 60 ) Y8 )  ( <= ( + Y8 71 ) Y6 )  )
( or ( <= ( + X6 91 ) X9 )  ( <= ( + X9 8 ) X6 )  ( <= ( + Y6 60 ) Y9 )  ( <= ( + Y9 78 ) Y6 )  )
( or ( <= ( + X6 91 ) X10 )  ( <= ( + X10 62 ) X6 )  ( <= ( + Y6 60 ) Y10 )  ( <= ( + Y10 74 ) Y6 )  )
( or ( <= ( + X6 91 ) X11 )  ( <= ( + X11 29 ) X6 )  ( <= ( + Y6 60 ) Y11 )  ( <= ( + Y11 52 ) Y6 )  )
( or ( <= ( + X7 4 ) X8 )  ( <= ( + X8 82 ) X7 )  ( <= ( + Y7 19 ) Y8 )  ( <= ( + Y8 71 ) Y7 )  )
( or ( <= ( + X7 4 ) X9 )  ( <= ( + X9 8 ) X7 )  ( <= ( + Y7 19 ) Y9 )  ( <= ( + Y9 78 ) Y7 )  )
( or ( <= ( + X7 4 ) X10 )  ( <= ( + X10 62 ) X7 )  ( <= ( + Y7 19 ) Y10 )  ( <= ( + Y10 74 ) Y7 )  )
( or ( <= ( + X7 4 ) X11 )  ( <= ( + X11 29 ) X7 )  ( <= ( + Y7 19 ) Y11 )  ( <= ( + Y11 52 ) Y7 )  )
( or ( <= ( + X8 82 ) X9 )  ( <= ( + X9 8 ) X8 )  ( <= ( + Y8 71 ) Y9 )  ( <= ( + Y9 78 ) Y8 )  )
( or ( <= ( + X8 82 ) X10 )  ( <= ( + X10 62 ) X8 )  ( <= ( + Y8 71 ) Y10 )  ( <= ( + Y10 74 ) Y8 )  )
( or ( <= ( + X8 82 ) X11 )  ( <= ( + X11 29 ) X8 )  ( <= ( + Y8 71 ) Y11 )  ( <= ( + Y11 52 ) Y8 )  )
( or ( <= ( + X9 8 ) X10 )  ( <= ( + X10 62 ) X9 )  ( <= ( + Y9 78 ) Y10 )  ( <= ( + Y10 74 ) Y9 )  )
( or ( <= ( + X9 8 ) X11 )  ( <= ( + X11 29 ) X9 )  ( <= ( + Y9 78 ) Y11 )  ( <= ( + Y11 52 ) Y9 )  )
( or ( <= ( + X10 62 ) X11 )  ( <= ( + X11 29 ) X10 )  ( <= ( + Y10 74 ) Y11 )  ( <= ( + Y11 52 ) Y10 )  )
( >= X0 0)
( <= ( + X0 63) Z)
( >= Y0 0)
( <= ( + Y0 24 ) 173)
( >= X1 0)
( <= ( + X1 75) Z)
( >= Y1 0)
( <= ( + Y1 57 ) 173)
( >= X2 0)
( <= ( + X2 30) Z)
( >= Y2 0)
( <= ( + Y2 2 ) 173)
( >= X3 0)
( <= ( + X3 57) Z)
( >= Y3 0)
( <= ( + Y3 81 ) 173)
( >= X4 0)
( <= ( + X4 21) Z)
( >= Y4 0)
( <= ( + Y4 37 ) 173)
( >= X5 0)
( <= ( + X5 39) Z)
( >= Y5 0)
( <= ( + Y5 34 ) 173)
( >= X6 0)
( <= ( + X6 91) Z)
( >= Y6 0)
( <= ( + Y6 60 ) 173)
( >= X7 0)
( <= ( + X7 4) Z)
( >= Y7 0)
( <= ( + Y7 19 ) 173)
( >= X8 0)
( <= ( + X8 82) Z)
( >= Y8 0)
( <= ( + Y8 71 ) 173)
( >= X9 0)
( <= ( + X9 8) Z)
( >= Y9 0)
( <= ( + Y9 78 ) 173)
( >= X10 0)
( <= ( + X10 62) Z)
( >= Y10 0)
( <= ( + Y10 74 ) 173)
( >= X11 0)
( <= ( + X11 29) Z)
( >= Y11 0)
( <= ( + Y11 52 ) 173)
) )
)(=> $phi $goal))))